70 200
7 5
13 1
9 1
8 2
8 4
10 6
14 6
9 1
2 7
2 1
11 4
9 5
3 7
11 5
8 2
1 6
5 7
3 4
8 4
10 6
7 2
14 4
14 6
1 7
9 4
13 4
8 2
3 5
3 5
12 5
3 6
1 7
1 3
8 2
5 5
10 7
13 1
11 2
7 5
6 3
10 1
7 7
10 5
9 3
4 6
13 6
1 7
10 4
2 7
4 6
5 7
7 5
12 2
2 4
9 4
7 1
6 7
11 2
11 3
1 5
8 5
1 6
8 4
1 1
9 5
8 3
10 5
9 6
4 4
14 2
